33D32945 STP File, STP Format Version 1.0

SECTION Comments
Name "edge_n14_d4_s7"
Problem "Euclidean Steiner Tree Problem"
Remark "Generated with STPGenerator. 4 dimensions."
END

SECTION Graph
Nodes 14
END

SECTION Coordinates
DDDD 0 0.4869041394 0.4869041394 0.4869041394 0.4869041394
DDDD 1 0.8679774124 0.8679774124 0.8679774124 0.8679774124
DDDD 2 0.5925911942 0.5925911942 0.5925911942 0.5925911942
DDDD 3 0.2147098403 0.2147098403 0.2147098403 0.2147098403
DDDD 4 0.0102265389 0.0102265389 0.0102265389 0.0102265389
DDDD 5 0.5148185620 0.5148185620 0.5148185620 0.5148185620
DDDD 6 0.9959482527 0.9959482527 0.9959482527 0.9959482527
DDDD 7 0.0319323023 0.0319323023 0.0319323023 0.0319323023
DDDD 8 0.6015652793 0.6015652793 0.6015652793 0.6015652793
DDDD 9 0.0553448466 0.0553448466 0.0553448466 0.0553448466
DDDD 10 0.5267799439 0.5267799439 0.5267799439 0.5267799439
DDDD 11 0.0893740547 0.0893740547 0.0893740547 0.0893740547
DDDD 12 0.7644367087 0.7644367087 0.7644367087 0.7644367087
DDDD 13 0.8154919030 0.8154919030 0.8154919030 0.8154919030
END
